NAME          BLANK   
ROWS
 N  OBJROW
 G  R0000000
 G  R0000001
 G  R0000002
 G  R0000003
 G  R0000004
 G  R0000005
COLUMNS
    C0000000  OBJROW    1.34019        R0000000  7.          
    C0000000  R0000002   -1.           R0000003   -4.        
    C0000000  R0000005  0.2         
    C0000001  OBJROW     -0.10562      R0000000   -1.        
    C0000001  R0000001  1.             R0000002  1.          
    C0000001  R0000003   -1.           R0000004   -1.        
    C0000001  R0000005   -1.        
RHS
    RHS       R0000000  13.            R0000001  1.          
    RHS       R0000002   -3.           R0000003   -27.       
    RHS       R0000004   -5.           R0000005   -4.        
BOUNDS
 UI BOUND     C0000000  6.          
 UI BOUND     C0000001  6.          
ENDATA
